 vasp.5.4.1 24Jun15 (build Nov 27 2015 14:36:51) complex

 executed on     NSC-TRIO-BUILD07 date 2016.03.04  02:47:18

 INCAR:
 POTCAR:    PAW_PBE V_sv 02Aug2007
 POTCAR:    PAW_PBE N_s 07Sep2000
 POTCAR:    PAW_PBE V_sv 02Aug2007
   VRHFIN =V: p6 d4 s1

   TITEL  = PAW_PBE V_sv 02Aug2007
   POMASS =   50.941; ZVAL   =   13.000    mass and valenz
   ENMAX  =  263.673; ENMIN  =  197.755 eV

 POTCAR:    PAW_PBE N_s 07Sep2000
   VRHFIN =N: s2p3

   TITEL  = PAW_PBE N_s 07Sep2000
   POMASS =   14.001; ZVAL   =    5.000    mass and valenz
   ENMAX  =  279.692; ENMIN  =  209.769 eV

  PAW_PBE V_sv 02Aug2007                :
  PAW_PBE N_s 07Sep2000                 :

 POSCAR: VN
  positions in direct lattice
 exchange correlation table for  LEXCH =       13
   RHO(1)=    0.500       N(1)  =     2000
   RHO(2)=  100.500       N(2)  =     4000

 ion  position               nearest neighbor table
   1  0.000  0.000  0.000-   2 2.04   2 2.04   2 2.04   2 2.04   2 2.04   2 2.04
   2  0.500  0.500  0.500-   1 2.04   1 2.04   1 2.04   1 2.04   1 2.04   1 2.04

  LATTYP: Found a face centered cubic cell.
 ALAT       =     4.0704800000

  Lattice vectors:

 A1 = (   0.0000000000,   2.0352400000,   2.0352400000)
 A2 = (   2.0352400000,   0.0000000000,   2.0352400000)
 A3 = (   2.0352400000,   2.0352400000,   0.0000000000)

Analysis of symmetry for initial positions (statically):
 Subroutine PRICEL returns:
 Original cell was already a primitive cell.

 Routine SETGRP: Setting up the symmetry group for a
 face centered cubic supercell.

 Subroutine GETGRP returns: Found 48 space group operations
 (whereof 48 operations were pure point group operations)
 out of a pool of 48 trial point group operations.

The static configuration has the point symmetry O_h .

Analysis of symmetry for dynamics (positions and initial velocities):
 Subroutine PRICEL returns:
 Original cell was already a primitive cell.

 Routine SETGRP: Setting up the symmetry group for a
 face centered cubic supercell.

 Subroutine GETGRP returns: Found 48 space group operations
 (whereof 48 operations were pure point group operations)
 out of a pool of 48 trial point group operations.

The dynamic configuration has the point symmetry O_h .

 Subroutine INISYM returns: Found 48 space group operations
 (whereof 48 operations are pure point group operations),
 and found     1 'primitive' translations

 KPOINTS: Automatic mesh

Automatic generation of k-mesh.
Space group operators:
 irot       det(A)        alpha          n_x          n_y          n_z        tau_x        tau_y        tau_z
    1     1.000000     0.000000     1.000000     0.000000     0.000000     0.000000     0.000000     0.000000
    2    -1.000000     0.000000     1.000000     0.000000     0.000000     0.000000     0.000000     0.000000
    3     1.000000   120.000000    -0.577350    -0.577350    -0.577350     0.000000     0.000000     0.000000
    4    -1.000000   120.000000    -0.577350    -0.577350    -0.577350     0.000000     0.000000     0.000000
    5     1.000000   120.000000     0.577350     0.577350     0.577350     0.000000     0.000000     0.000000
    6    -1.000000   120.000000     0.577350     0.577350     0.577350     0.000000     0.000000     0.000000
    7     1.000000    90.000000     0.000000     0.000000    -1.000000     0.000000     0.000000     0.000000
    8    -1.000000    90.000000     0.000000     0.000000    -1.000000     0.000000     0.000000     0.000000
    9     1.000000   180.000000     0.000000     0.707107     0.707107     0.000000     0.000000     0.000000
   10    -1.000000   180.000000     0.000000     0.707107     0.707107     0.000000     0.000000     0.000000
   11     1.000000    90.000000     0.000000     1.000000     0.000000     0.000000     0.000000     0.000000
   12    -1.000000    90.000000     0.000000     1.000000     0.000000     0.000000     0.000000     0.000000
   13     1.000000   180.000000     0.000000     0.000000     1.000000     0.000000     0.000000     0.000000
   14    -1.000000   180.000000     0.000000     0.000000     1.000000     0.000000     0.000000     0.000000
   15     1.000000   120.000000    -0.577350     0.577350     0.577350     0.000000     0.000000     0.000000
   16    -1.000000   120.000000    -0.577350     0.577350     0.577350     0.000000     0.000000     0.000000
   17     1.000000   120.000000    -0.577350     0.577350    -0.577350     0.000000     0.000000     0.000000
   18    -1.000000   120.000000    -0.577350     0.577350    -0.577350     0.000000     0.000000     0.000000
   19     1.000000    90.000000     0.000000     0.000000     1.000000     0.000000     0.000000     0.000000
   20    -1.000000    90.000000     0.000000     0.000000     1.000000     0.000000     0.000000     0.000000
   21     1.000000    90.000000    -1.000000     0.000000     0.000000     0.000000     0.000000     0.000000
   22    -1.000000    90.000000    -1.000000     0.000000     0.000000     0.000000     0.000000     0.000000
   23     1.000000   180.000000     0.707107     0.000000     0.707107     0.000000     0.000000     0.000000
   24    -1.000000   180.000000     0.707107     0.000000     0.707107     0.000000     0.000000     0.000000
   25     1.000000   120.000000     0.577350    -0.577350     0.577350     0.000000     0.000000     0.000000
   26    -1.000000   120.000000     0.577350    -0.577350     0.577350     0.000000     0.000000     0.000000
   27     1.000000   120.000000    -0.577350    -0.577350     0.577350     0.000000     0.000000     0.000000
   28    -1.000000   120.000000    -0.577350    -0.577350     0.577350     0.000000     0.000000     0.000000
   29     1.000000   180.000000     1.000000     0.000000     0.000000     0.000000     0.000000     0.000000
   30    -1.000000   180.000000     1.000000     0.000000     0.000000     0.000000     0.000000     0.000000
   31     1.000000    90.000000     0.000000    -1.000000     0.000000     0.000000     0.000000     0.000000
   32    -1.000000    90.000000     0.000000    -1.000000     0.000000     0.000000     0.000000     0.000000
   33     1.000000   180.000000     0.707107     0.707107     0.000000     0.000000     0.000000     0.000000
   34    -1.000000   180.000000     0.707107     0.707107     0.000000     0.000000     0.000000     0.000000
   35     1.000000    90.000000     1.000000     0.000000     0.000000     0.000000     0.000000     0.000000
   36    -1.000000    90.000000     1.000000     0.000000     0.000000     0.000000     0.000000     0.000000
   37     1.000000   120.000000     0.577350    -0.577350    -0.577350     0.000000     0.000000     0.000000
   38    -1.000000   120.000000     0.577350    -0.577350    -0.577350     0.000000     0.000000     0.000000
   39     1.000000   180.000000     0.000000     1.000000     0.000000     0.000000     0.000000     0.000000
   40    -1.000000   180.000000     0.000000     1.000000     0.000000     0.000000     0.000000     0.000000
   41     1.000000   120.000000     0.577350     0.577350    -0.577350     0.000000     0.000000     0.000000
   42    -1.000000   120.000000     0.577350     0.577350    -0.577350     0.000000     0.000000     0.000000
   43     1.000000   180.000000     0.000000    -0.707107     0.707107     0.000000     0.000000     0.000000
   44    -1.000000   180.000000     0.000000    -0.707107     0.707107     0.000000     0.000000     0.000000
   45     1.000000   180.000000     0.707107    -0.707107     0.000000     0.000000     0.000000     0.000000
   46    -1.000000   180.000000     0.707107    -0.707107     0.000000     0.000000     0.000000     0.000000
   47     1.000000   180.000000     0.707107     0.000000    -0.707107     0.000000     0.000000     0.000000
   48    -1.000000   180.000000     0.707107     0.000000    -0.707107     0.000000     0.000000     0.000000

 Subroutine IBZKPT returns following result:

 Found    455 irreducible k-points:

 Following reciprocal coordinates:
            Coordinates               Weight
  0.000000  0.000000  0.000000      1.000000
  0.040000  0.000000  0.000000      8.000000
  0.080000  0.000000  0.000000      8.000000
  0.120000  0.000000  0.000000      8.000000
  0.160000  0.000000  0.000000      8.000000
  0.200000  0.000000  0.000000      8.000000
  0.240000  0.000000  0.000000      8.000000
  0.280000  0.000000  0.000000      8.000000
  0.320000  0.000000  0.000000      8.000000
  0.360000  0.000000  0.000000      8.000000
  0.400000  0.000000  0.000000      8.000000
  0.440000  0.000000  0.000000      8.000000
  0.480000  0.000000  0.000000      8.000000
  0.040000  0.040000  0.000000      6.000000
  0.080000  0.040000  0.000000     24.000000
  0.120000  0.040000  0.000000     24.000000
  0.160000  0.040000  0.000000     24.000000
  0.200000  0.040000  0.000000     24.000000
  0.240000  0.040000  0.000000     24.000000
  0.280000  0.040000  0.000000     24.000000
  0.320000  0.040000  0.000000     24.000000
  0.360000  0.040000  0.000000     24.000000
  0.400000  0.040000  0.000000     24.000000
  0.440000  0.040000  0.000000     24.000000
  0.480000  0.040000  0.000000     24.000000
 -0.480000  0.040000  0.000000     24.000000
 -0.440000  0.040000  0.000000     24.000000
 -0.400000  0.040000  0.000000     24.000000
 -0.360000  0.040000  0.000000     24.000000
 -0.320000  0.040000  0.000000     24.000000
 -0.280000  0.040000  0.000000     24.000000
 -0.240000  0.040000  0.000000     24.000000
 -0.200000  0.040000  0.000000     24.000000
 -0.160000  0.040000  0.000000     24.000000
 -0.120000  0.040000  0.000000     24.000000
 -0.080000  0.040000  0.000000     24.000000
 -0.040000  0.040000  0.000000     12.000000
  0.080000  0.080000  0.000000      6.000000
  0.120000  0.080000  0.000000     24.000000
  0.160000  0.080000  0.000000     24.000000
  0.200000  0.080000  0.000000     24.000000
  0.240000  0.080000  0.000000     24.000000
  0.280000  0.080000  0.000000     24.000000
  0.320000  0.080000  0.000000     24.000000
  0.360000  0.080000  0.000000     24.000000
  0.400000  0.080000  0.000000     24.000000
  0.440000  0.080000  0.000000     24.000000
  0.480000  0.080000  0.000000     24.000000
 -0.480000  0.080000  0.000000     24.000000
 -0.440000  0.080000  0.000000     24.000000
 -0.400000  0.080000  0.000000     24.000000
 -0.360000  0.080000  0.000000     24.000000
 -0.320000  0.080000  0.000000     24.000000
 -0.280000  0.080000  0.000000     24.000000
 -0.240000  0.080000  0.000000     24.000000
 -0.200000  0.080000  0.000000     24.000000
 -0.160000  0.080000  0.000000     24.000000
 -0.120000  0.080000  0.000000     24.000000
 -0.080000  0.080000  0.000000     12.000000
  0.120000  0.120000  0.000000      6.000000
[...]
 -0.360000  0.440000  0.160000     48.000000
 -0.320000  0.440000  0.160000     48.000000
 -0.280000  0.440000  0.160000     24.000000
 -0.360000  0.480000  0.160000     24.000000
 -0.320000  0.480000  0.160000     24.000000
 -0.400000  0.400000  0.200000     24.000000
 -0.360000  0.400000  0.200000     48.000000
 -0.320000  0.400000  0.200000     48.000000
 -0.360000  0.440000  0.200000     24.000000
 -0.320000  0.440000  0.200000     48.000000
[...]
 k-point ** :   0.4000 0.2000 0.0000  plane waves:     564
 k-point ** :   0.4400 0.2000 0.0000  plane waves:     562
 k-point ** :   0.4800 0.2000 0.0000  plane waves:     561
 k-point ** :  -0.4800 0.2000 0.0000  plane waves:     565
 k-point ** :  -0.4400 0.2000 0.0000  plane waves:     566
 k-point ** :  -0.4000 0.2000 0.0000  plane waves:     562
 k-point ** :  -0.3600 0.2000 0.0000  plane waves:     562
 k-point ** :  -0.3200 0.2000 0.0000  plane waves:     562
 k-point ** :  -0.2800 0.2000 0.0000  plane waves:     561
 k-point ** :  -0.2400 0.2000 0.0000  plane waves:     560
 k-point ** :  -0.2000 0.2000 0.0000  plane waves:     562
 k-point ** :   0.2400 0.2400 0.0000  plane waves:     568
 k-point ** :   0.2800 0.2400 0.0000  plane waves:     564
 k-point ** :   0.3200 0.2400 0.0000  plane waves:     562
 k-point ** :   0.3600 0.2400 0.0000  plane waves:     564
 k-point ** :   0.4000 0.2400 0.0000  plane waves:     560
 k-point ** :   0.4400 0.2400 0.0000  plane waves:     562
 k-point ** :   0.4800 0.2400 0.0000  plane waves:     562
 k-point ** :  -0.4800 0.2400 0.0000  plane waves:     559
 k-point ** :  -0.4400 0.2400 0.0000  plane waves:     562
 k-point ** :  -0.4000 0.2400 0.0000  plane waves:     564
 k-point ** :  -0.3600 0.2400 0.0000  plane waves:     562
 k-point ** :  -0.3200 0.2400 0.0000  plane waves:     560
 k-point ** :  -0.2800 0.2400 0.0000  plane waves:     558
 k-point ** :  -0.2400 0.2400 0.0000  plane waves:     558
 k-point ** :   0.2800 0.2800 0.0000  plane waves:     568
 k-point ** :   0.3200 0.2800 0.0000  plane waves:     566
 k-point ** :   0.3600 0.2800 0.0000  plane waves:     566
 k-point ** :   0.4000 0.2800 0.0000  plane waves:     566
 k-point ** :   0.4400 0.2800 0.0000  plane waves:     562
 k-point ** :   0.4800 0.2800 0.0000  plane waves:     562
 k-point ** :  -0.4800 0.2800 0.0000  plane waves:     562
 k-point ** :  -0.4400 0.2800 0.0000  plane waves:     560
 k-point ** :  -0.4000 0.2800 0.0000  plane waves:     556
 k-point ** :  -0.3600 0.2800 0.0000  plane waves:     561
 k-point ** :  -0.3200 0.2800 0.0000  plane waves:     562
 k-point ** :  -0.2800 0.2800 0.0000  plane waves:     558
 k-point ** :   0.3200 0.3200 0.0000  plane waves:     568
 k-point ** :   0.3600 0.3200 0.0000  plane waves:     564
 k-point ** :   0.4000 0.3200 0.0000  plane waves:     564
 k-point ** :   0.4400 0.3200 0.0000  plane waves:     564
 k-point ** :   0.4800 0.3200 0.0000  plane waves:     566
 k-point ** :  -0.4800 0.3200 0.0000  plane waves:     566
 k-point ** :  -0.4400 0.3200 0.0000  plane waves:     562
 k-point ** :  -0.4000 0.3200 0.0000  plane waves:     558
 k-point ** :  -0.3600 0.3200 0.0000  plane waves:     564
 k-point ** :  -0.3200 0.3200 0.0000  plane waves:     560
 k-point ** :   0.3600 0.3600 0.0000  plane waves:     568
 k-point ** :   0.4000 0.3600 0.0000  plane waves:     564
 k-point ** :   0.4400 0.3600 0.0000  plane waves:     565
 k-point ** :   0.4800 0.3600 0.0000  plane waves:     562
 k-point ** :  -0.4800 0.3600 0.0000  plane waves:     566
 k-point ** :  -0.4400 0.3600 0.0000  plane waves:     566
 k-point ** :  -0.4000 0.3600 0.0000  plane waves:     558
 k-point ** :  -0.3600 0.3600 0.0000  plane waves:     560
 k-point ** :   0.4000 0.4000 0.0000  plane waves:     560
 k-point ** :   0.4400 0.4000 0.0000  plane waves:     562
[...]
 k-point ** :  -0.3600 0.4400 0.1600  plane waves:     560
 k-point ** :  -0.3200 0.4400 0.1600  plane waves:     554
 k-point ** :  -0.2800 0.4400 0.1600  plane waves:     552
 k-point ** :  -0.3600 0.4800 0.1600  plane waves:     562
 k-point ** :  -0.3200 0.4800 0.1600  plane waves:     564
 k-point ** :  -0.4000 0.4000 0.2000  plane waves:     565
 k-point ** :  -0.3600 0.4000 0.2000  plane waves:     562
 k-point ** :  -0.3200 0.4000 0.2000  plane waves:     558
 k-point ** :  -0.3600 0.4400 0.2000  plane waves:     562
 k-point ** :  -0.3200 0.4400 0.2000  plane waves:     560
 k-point ** :  -0.2800 0.4400 0.2000  plane waves:     556
 k-point ** :  -0.2400 0.4400 0.2000  plane waves:     560
 k-point ** :  -0.3200 0.4800 0.2000  plane waves:     559
 k-point ** :  -0.2800 0.4800 0.2000  plane waves:     558
 k-point ** :  -0.2800 0.4800 0.2400  plane waves:     560

 maximum and minimum number of plane-waves per node :       149      130

 maximum number of plane-waves:       576
 maximum index in each direction:
   IXMAX=    6   IYMAX=    5   IZMAX=    5
   IXMIN=   -6   IYMIN=   -6   IZMIN=   -5

 WARNING: aliasing errors must be expected set NGX to  26 to avoid them
 NGY is ok and might be reduce to  24
 NGZ is ok and might be reduce to  22
 aliasing errors are usually negligible using standard VASP settings
 and one can safely disregard these warnings

 parallel 3D FFT for wavefunctions:
    minimum data exchange during FFTs selected (reduces bandwidth)
 parallel 3D FFT for charge:
    minimum data exchange during FFTs selected (reduces bandwidth)

 Broyden mixing: mesh for mixing (old mesh)
   NGX = 11   NGY = 11   NGZ = 11
  (NGX  = 48   NGY  = 48   NGZ  = 48)
  gives a total of   1331 points

 initial charge density was supplied:
 charge density of overlapping atoms calculated
 number of electron      18.0000000 magnetization
 keeping initial charge density in first step

 Maximum index for augmentation-charges         1771 (set IRDMAX)

 First call to EWALD:  gamma=   0.691
 Maximum number of real-space cells 3x 3x 3
 Maximum number of reciprocal cells 3x 3x 3

 FEWALD executed in parallel

----------------------------------------- Iteration    1(   1)  ---------------------------------------

 BZINTS: Fermi energy: 25.970438; 18.000000 electrons
         Band energy:  48.867063;  BLOECHL correction: -0.145187

 eigenvalue-minimisations  : 47796
 total energy-change (2. order) : 0.2046129E+03  (-0.5698815E+03)
 number of electron      18.0000000 magnetization
 augmentation part       18.0000000 magnetization

 Free energy of the ion-electron system (eV)
  alpha Z        PSCENC =       115.97934524
  Ewald energy   TEWEN  =     -1823.86736701
  -Hartree energ DENC   =      -426.64496759
  -exchange      EXHF   =         0.00000000
  -V(xc)+E(xc)   XCENC  =        93.47800849
  PAW double counting   =      1750.63120628    -1765.52358434
  entropy T*S    EENTRO =         0.00000000
  eigenvalues    EBANDS =        48.86706336
  atomic energy  EATOM  =      2211.69316217
  Solvation  Ediel_sol  =         0.00000000
  free energy    TOTEN  =       204.61286660 eV

  energy without entropy =      204.61286660  energy(sigma->0) =      204.61286660

[...]

 BZINTS: Fermi energy: 15.707334; 18.000000 electrons
         Band energy:-168.150873;  BLOECHL correction: -0.020850

 eigenvalue-minimisations  : 49860
 total energy-change (2. order) :-0.2170179E+03  (-0.1935637E+03)
 number of electron      18.0000000 magnetization
 augmentation part       18.0000000 magnetization

[...]

 Broyden mixing:
  rms(total) = 0.33846E+01    rms(broyden)= 0.33846E+01
  rms(prec ) = 0.65008E+01
  weight for this iteration     100.00

[...]

 eigenvalues of (default mixing * dielectric matrix)
  average eigenvalue GAMMA=   0.7417
  0.7417

[...]

 eigenvalue-minimisations  : 66435
 total energy-change (2. order) :-0.4715775E-02  (-0.1421309E-02)
 number of electron      18.0000005 magnetization
 augmentation part        5.3765998 magnetization

[...]

WARNING in EDDRMM: call to ZHEGV failed, returncode =   8  4 11
WARNING in EDDRMM: call to ZHEGV failed, returncode =   8  4 12
WARNING in EDDRMM: call to ZHEGV failed, returncode =   8  4 12
 BZINTS: Fermi energy: 12.824987; 18.000000 electrons
         Band energy:-204.567996;  BLOECHL correction: -0.011169

[...]

 Broyden mixing:
  rms(total) = 0.75807E-03    rms(broyden)= 0.75806E-03
  rms(prec ) = 0.20663E-02
  weight for this iteration     100.00

 eigenvalues of (default mixing * dielectric matrix)
  average eigenvalue GAMMA=   1.4244
  2.5616  2.4352  0.5179  1.4427  1.0676  1.0676  0.8779

[...]

----------------------------------------- Iteration    1(  13)  ---------------------------------------

WARNING in EDDRMM: call to ZHEGV failed, returncode =   8  4 12
WARNING in EDDRMM: call to ZHEGV failed, returncode =   6  3 12
WARNING in EDDRMM: call to ZHEGV failed, returncode =   8  4 11
WARNING in EDDRMM: call to ZHEGV failed, returncode =   6  3 12
WARNING in EDDRMM: call to ZHEGV failed, returncode =   8  4 11
WARNING in EDDRMM: call to ZHEGV failed, returncode =   8  4 12
 BZINTS: Fermi energy: 12.825435; 18.000000 electrons
         Band energy:-204.563314;  BLOECHL correction: -0.011170

 eigenvalue-minimisations  : 60777
 total energy-change (2. order) : 0.5282627E-06  (-0.3224493E-08)
 number of electron      18.0000005 magnetization
 augmentation part        5.2652555 magnetization

 Free energy of the ion-electron system (eV)
  alpha Z        PSCENC =       115.97934524
  Ewald energy   TEWEN  =     -1823.86736701
  -Hartree energ DENC   =      -393.54160469
  -exchange      EXHF   =         0.00000000
  -V(xc)+E(xc)   XCENC  =        92.30667426
  PAW double counting   =      3435.55420377    -3453.64523964
  entropy T*S    EENTRO =         0.00000000
  eigenvalues    EBANDS =      -204.56331354
  atomic energy  EATOM  =      2211.69316217
  Solvation  Ediel_sol  =         0.00000000
  free energy    TOTEN  =       -20.08413944 eV

  energy without entropy =      -20.08413944  energy(sigma->0) =      -20.08413944

 average (electrostatic) potential at core
  the test charge radii are     0.9956  0.9051
  (the norm of the test charge is              1.0000)
       1 -68.4287       2 -68.8296

 E-fermi :  12.8254     XC(G=0): -14.0239     alpha+bet :-20.5118

 k-point     1 :       0.0000    0.0000    0.0000
  band No.  band energies     occupation
      1     -52.2209      2.00000
      2     -26.0191      2.00000
      3     -26.0191      2.00000
      4     -26.0191      2.00000
      5      -5.3496      2.00000
      6      10.5424      2.00000
      7      10.5424      2.00000
      8      10.5424      2.00000
      9      11.1945      2.00000
     10      11.1945      2.00000
     11      11.1945      2.00000
     12      12.2983      2.00000
     13      12.2983      2.00000
     14      19.2450      0.00000
     15      26.7309      0.00000
     16      33.1295      0.00000
     17      33.1295      0.00000
     18      33.1295      0.00000
     19      41.0331      0.00000
     20      41.0331      0.00000
     21      41.7108      0.00000
     22      41.7108      0.00000
     23      41.7108      0.00000
     24      50.2301      0.00000
     25      50.2301      0.00000
     26      50.2301      0.00000
     27      57.2091      0.00000
     28      62.5110      0.00000
     29      62.5110      0.00000
     30      62.5110      0.00000
     31      67.7938      0.00000
     32      67.7938      0.00000
     33      72.0297      0.00000
     34      72.0297      0.00000
     35      72.0297      0.00000
     36      82.3914      0.00000
     37      85.7653      0.00000
     38      85.7653      0.00000
     39      85.7653      0.00000
     40      87.5933      0.00000
     41      89.7743      0.00000
     42      89.7743      0.00000
     43      89.7743      0.00000
     44      91.8317      0.00000
     45      91.8317      0.00000
     46      91.8317      0.00000
     47      92.0942      0.00000
     48      92.0942      0.00000
     49      92.0942      0.00000
     50      94.0294      0.00000
     51      94.0304      0.00000
     52      94.0311      0.00000

[...]

 k-point   455 :      -0.2800    0.4800    0.2400
  band No.  band energies     occupation
      1     -52.1018      2.00000
      2     -26.3739      2.00000
      3     -26.3516      2.00000
      4     -26.2200      2.00000
      5      -2.9693      2.00000
      6       6.2606      2.00000
      7       6.4385      2.00000
      8       6.6943      2.00000
      9      12.8472      1.10435
     10      13.0952      0.00000
     11      14.1527      0.00000
     12      15.1881      0.00000
     13      15.8703      0.00000
     14      25.1806      0.00000
     15      25.3060      0.00000
     16      26.4558      0.00000
     17      30.2865      0.00000
     18      35.5343      0.00000
     19      35.8781      0.00000
     20      42.7989      0.00000
     21      46.3550      0.00000
     22      46.5051      0.00000
     23      49.5696      0.00000
     24      49.5981      0.00000
     25      53.8189      0.00000
     26      55.2399      0.00000
     27      55.8036      0.00000
     28      56.5900      0.00000
     29      57.0849      0.00000
     30      57.9608      0.00000
     31      62.1324      0.00000
     32      62.8922      0.00000
     33      64.9473      0.00000
     34      65.7461      0.00000
     35      70.3709      0.00000
     36      74.4572      0.00000
     37      76.0882      0.00000
     38      80.4599      0.00000
     39      83.8962      0.00000
     40      84.0681      0.00000
     41      85.9233      0.00000
     42      87.6062      0.00000
     43      88.2091      0.00000
     44      89.9743      0.00000
     45      93.4308      0.00000
     46      95.6174      0.00000
     47      96.0227      0.00000
     48      97.6160      0.00000
     49      98.3025      0.00000
     50     101.4063      0.00000
     51     103.1432      0.00000
     52     103.4516      0.00000

 soft charge-density along one line, spin component           1
         0         1         2         3         4         5         6         7         8         9
 total charge-density along one line

------------------------ aborting loop because EDIFF is reached ----------------------------------------

 total charge

# of ion     s       p       d       tot
  1        2.251   6.307   3.214  11.772
  2        1.631   3.468   0.000   5.099
tot        3.882   9.775   3.214  16.870

  FORCE on cell =-STRESS in cart. coord.  units (eV):
  Direction    XX          YY          ZZ          XY          YZ          ZX
  Alpha Z   115.97935   115.97935   115.97935
  Ewald    -607.95594  -607.95594  -607.95594    -0.00000     0.00000     0.00000
  Hartree   131.18298   131.18298   131.18298     0.00000     0.00000     0.00000
  E(xc)     -92.89275   -92.89275   -92.89275     0.00000     0.00000     0.00000
  Local     111.01802   111.01802   111.01802    -0.00000    -0.00000    -0.00000
  n-local   -19.55822   -19.99209   -17.56046     2.05383    -2.80956     1.98230
  augment    89.74100    89.74100    89.74100     0.00000     0.00000     0.00000
  Kinetic   276.69224   278.86733   260.33645     3.31760    -7.14205     5.26927
  Fock        0.00000     0.00000     0.00000     0.00000     0.00000     0.00000
  Total       0.00107     0.00107     0.00107    -0.00000    -0.00000     0.00000
  in kB       0.10194     0.10194     0.10194    -0.00000    -0.00000     0.00000

 VOLUME and BASIS-vectors are now :
  energy-cutoff  :      600.00
  volume of cell :       16.86
      direct lattice vectors                 reciprocal lattice vectors
     0.000000000  2.035240000  2.035240000    -0.245671272  0.245671272  0.245671272
     2.035240000  0.000000000  2.035240000     0.245671272 -0.245671272  0.245671272
     2.035240000  2.035240000  0.000000000     0.245671272  0.245671272 -0.245671272

  length of vectors
     2.878264011  2.878264011  2.878264011     0.425515125  0.425515125  0.425515125

 FORCES acting on ions
    electron-ion (+dipol)            ewald-force                    non-local-force                 convergence-correction
   -.191E-13 -.140E-13 -.924E-15   0.381E-15 -.748E-14 -.274E-14   0.000E+00 -.414E-24 0.000E+00   0.204E-16 -.160E-13 -.354E-15
   0.841E-12 -.115E-11 -.616E-12   0.696E-16 0.556E-14 0.182E-14   -.213E-24 0.103E-23 -.207E-24   -.400E-14 -.368E-14 -.721E-14
   0.822E-12 -.116E-11 -.617E-12   0.451E-15 -.192E-14 -.918E-15   -.213E-24 0.614E-24 -.207E-24   -.398E-14 -.197E-13 -.756E-14

 POSITION                                       TOTAL-FORCE (eV/Angst)
      0.00000      0.00000      0.00000         0.000000     -0.000000      0.000000
      2.03524      2.03524      2.03524        -0.000000      0.000000     -0.000000
    total drift:                                0.000000     -0.000000     -0.000000

  FREE ENERGIE OF THE ION-ELECTRON SYSTEM (eV)
  free  energy   TOTEN  =       -20.08413944 eV

  energy  without entropy=      -20.08413944  energy(sigma->0) =      -20.08413944

 total charge

# of ion     s       p       d       tot
  1        2.251   6.307   3.214  11.772
  2        1.631   3.468   0.000   5.099
tot        3.882   9.775   3.214  16.870

 BZINTS: Fermi energy: 12.825435; 18.000000 electrons
         Band energy:-204.563314;  BLOECHL correction: -0.011170