 vasp.5.4.1 24Jun15 (build Jan 21 2017 23:00:56) complex

 executed on           IFC91_ompi date 2017.01.22  08:28:17

 INCAR:
 POTCAR:    PAW_PBE V_sv 02Aug2007
 POTCAR:    PAW_PBE N_s 07Sep2000
 POTCAR:    PAW_PBE V_sv 02Aug2007
   VRHFIN =V: p6 d4 s1

   TITEL  = PAW_PBE V_sv 02Aug2007
   POMASS =   50.941; ZVAL   =   13.000    mass and valenz
   ENMAX  =  263.673; ENMIN  =  197.755 eV

 POTCAR:    PAW_PBE N_s 07Sep2000
   VRHFIN =N: s2p3

   TITEL  = PAW_PBE N_s 07Sep2000
   POMASS =   14.001; ZVAL   =    5.000    mass and valenz
   ENMAX  =  279.692; ENMIN  =  209.769 eV

  PAW_PBE V_sv 02Aug2007                :
  PAW_PBE N_s 07Sep2000                 :

 POSCAR: VN
  positions in direct lattice
 exchange correlation table for  LEXCH =       13
   RHO(1)=    0.500       N(1)  =     2000
   RHO(2)=  100.500       N(2)  =     4000

 ion  position               nearest neighbor table
   1  0.000  0.000  0.000-   2 2.04   2 2.04   2 2.04   2 2.04   2 2.04   2 2.04
   2  0.500  0.500  0.500-   1 2.04   1 2.04   1 2.04   1 2.04   1 2.04   1 2.04

  LATTYP: Found a face centered cubic cell.
 ALAT       =     4.0711530000

  Lattice vectors:

 A1 = (   0.0000000000,   2.0355765000,   2.0355765000)
 A2 = (   2.0355765000,   0.0000000000,   2.0355765000)
 A3 = (   2.0355765000,   2.0355765000,   0.0000000000)

Analysis of symmetry for initial positions (statically):
 Subroutine PRICEL returns:
 Original cell was already a primitive cell.

 Routine SETGRP: Setting up the symmetry group for a
 face centered cubic supercell.

 Subroutine GETGRP returns: Found 48 space group operations
 (whereof 48 operations were pure point group operations)
 out of a pool of 48 trial point group operations.

The static configuration has the point symmetry O_h .

Analysis of symmetry for dynamics (positions and initial velocities):
 Subroutine PRICEL returns:
 Original cell was already a primitive cell.

 Routine SETGRP: Setting up the symmetry group for a
 face centered cubic supercell.

 Subroutine GETGRP returns: Found 48 space group operations
 (whereof 48 operations were pure point group operations)
 out of a pool of 48 trial point group operations.

The dynamic configuration has the point symmetry O_h .

 Subroutine INISYM returns: Found 48 space group operations
 (whereof 48 operations are pure point group operations),
 and found     1 'primitive' translations

 KPOINTS: Automatic mesh

Automatic generation of k-mesh.
Space group operators:
 irot       det(A)        alpha          n_x          n_y          n_z        tau_x        tau_y        tau_z
    1     1.000000     0.000000     1.000000     0.000000     0.000000     0.000000     0.000000     0.000000
    2    -1.000000     0.000000     1.000000     0.000000     0.000000     0.000000     0.000000     0.000000
    3     1.000000   120.000000    -0.577350    -0.577350    -0.577350     0.000000     0.000000     0.000000
    4    -1.000000   120.000000    -0.577350    -0.577350    -0.577350     0.000000     0.000000     0.000000
    5     1.000000   120.000000     0.577350     0.577350     0.577350     0.000000     0.000000     0.000000
    6    -1.000000   120.000000     0.577350     0.577350     0.577350     0.000000     0.000000     0.000000
    7     1.000000    90.000000     0.000000     0.000000    -1.000000     0.000000     0.000000     0.000000
    8    -1.000000    90.000000     0.000000     0.000000    -1.000000     0.000000     0.000000     0.000000
    9     1.000000   180.000000     0.000000     0.707107     0.707107     0.000000     0.000000     0.000000
   10    -1.000000   180.000000     0.000000     0.707107     0.707107     0.000000     0.000000     0.000000
   11     1.000000    90.000000     0.000000     1.000000     0.000000     0.000000     0.000000     0.000000
   12    -1.000000    90.000000     0.000000     1.000000     0.000000     0.000000     0.000000     0.000000
   13     1.000000   180.000000     0.000000     0.000000     1.000000     0.000000     0.000000     0.000000
   14    -1.000000   180.000000     0.000000     0.000000     1.000000     0.000000     0.000000     0.000000
   15     1.000000   120.000000    -0.577350     0.577350     0.577350     0.000000     0.000000     0.000000
   16    -1.000000   120.000000    -0.577350     0.577350     0.577350     0.000000     0.000000     0.000000
   17     1.000000   120.000000    -0.577350     0.577350    -0.577350     0.000000     0.000000     0.000000
   18    -1.000000   120.000000    -0.577350     0.577350    -0.577350     0.000000     0.000000     0.000000
   19     1.000000    90.000000     0.000000     0.000000     1.000000     0.000000     0.000000     0.000000
   20    -1.000000    90.000000     0.000000     0.000000     1.000000     0.000000     0.000000     0.000000
   21     1.000000    90.000000    -1.000000     0.000000     0.000000     0.000000     0.000000     0.000000
   22    -1.000000    90.000000    -1.000000     0.000000     0.000000     0.000000     0.000000     0.000000
   23     1.000000   180.000000     0.707107     0.000000     0.707107     0.000000     0.000000     0.000000
   24    -1.000000   180.000000     0.707107     0.000000     0.707107     0.000000     0.000000     0.000000
   25     1.000000   120.000000     0.577350    -0.577350     0.577350     0.000000     0.000000     0.000000
   26    -1.000000   120.000000     0.577350    -0.577350     0.577350     0.000000     0.000000     0.000000
   27     1.000000   120.000000    -0.577350    -0.577350     0.577350     0.000000     0.000000     0.000000
   28    -1.000000   120.000000    -0.577350    -0.577350     0.577350     0.000000     0.000000     0.000000
   29     1.000000   180.000000     1.000000     0.000000     0.000000     0.000000     0.000000     0.000000
   30    -1.000000   180.000000     1.000000     0.000000     0.000000     0.000000     0.000000     0.000000
   31     1.000000    90.000000     0.000000    -1.000000     0.000000     0.000000     0.000000     0.000000
   32    -1.000000    90.000000     0.000000    -1.000000     0.000000     0.000000     0.000000     0.000000
   33     1.000000   180.000000     0.707107     0.707107     0.000000     0.000000     0.000000     0.000000
   34    -1.000000   180.000000     0.707107     0.707107     0.000000     0.000000     0.000000     0.000000
   35     1.000000    90.000000     1.000000     0.000000     0.000000     0.000000     0.000000     0.000000
   36    -1.000000    90.000000     1.000000     0.000000     0.000000     0.000000     0.000000     0.000000
   37     1.000000   120.000000     0.577350    -0.577350    -0.577350     0.000000     0.000000     0.000000
   38    -1.000000   120.000000     0.577350    -0.577350    -0.577350     0.000000     0.000000     0.000000
   39     1.000000   180.000000     0.000000     1.000000     0.000000     0.000000     0.000000     0.000000
   40    -1.000000   180.000000     0.000000     1.000000     0.000000     0.000000     0.000000     0.000000
   41     1.000000   120.000000     0.577350     0.577350    -0.577350     0.000000     0.000000     0.000000
   42    -1.000000   120.000000     0.577350     0.577350    -0.577350     0.000000     0.000000     0.000000
   43     1.000000   180.000000     0.000000    -0.707107     0.707107     0.000000     0.000000     0.000000
   44    -1.000000   180.000000     0.000000    -0.707107     0.707107     0.000000     0.000000     0.000000
   45     1.000000   180.000000     0.707107    -0.707107     0.000000     0.000000     0.000000     0.000000
   46    -1.000000   180.000000     0.707107    -0.707107     0.000000     0.000000     0.000000     0.000000
   47     1.000000   180.000000     0.707107     0.000000    -0.707107     0.000000     0.000000     0.000000
   48    -1.000000   180.000000     0.707107     0.000000    -0.707107     0.000000     0.000000     0.000000

 Subroutine IBZKPT returns following result:

 Found    286 irreducible k-points:

 Following reciprocal coordinates:
            Coordinates               Weight
  0.000000  0.000000  0.000000      1.000000
  0.047619  0.000000  0.000000      8.000000
  0.095238  0.000000  0.000000      8.000000
  0.142857  0.000000  0.000000      8.000000
  0.190476  0.000000  0.000000      8.000000
  0.238095  0.000000  0.000000      8.000000
  0.285714  0.000000  0.000000      8.000000
  0.333333  0.000000  0.000000      8.000000
  0.380952  0.000000  0.000000      8.000000
  0.428571  0.000000  0.000000      8.000000
  0.476190  0.000000  0.000000      8.000000
  0.047619  0.047619  0.000000      6.000000
  0.095238  0.047619  0.000000     24.000000
  0.142857  0.047619  0.000000     24.000000
  0.190476  0.047619  0.000000     24.000000
  0.238095  0.047619  0.000000     24.000000
  0.285714  0.047619  0.000000     24.000000
  0.333333  0.047619  0.000000     24.000000
  0.380952  0.047619  0.000000     24.000000
  0.428571  0.047619  0.000000     24.000000
  0.476190  0.047619  0.000000     24.000000
 -0.476190  0.047619  0.000000     24.000000
 -0.428571  0.047619  0.000000     24.000000
 -0.380952  0.047619  0.000000     24.000000
 -0.333333  0.047619  0.000000     24.000000
 -0.285714  0.047619  0.000000     24.000000
 -0.238095  0.047619  0.000000     24.000000
 -0.190476  0.047619  0.000000     24.000000
 -0.142857  0.047619  0.000000     24.000000
 -0.095238  0.047619  0.000000     24.000000
 -0.047619  0.047619  0.000000     12.000000
  0.095238  0.095238  0.000000      6.000000
  0.142857  0.095238  0.000000     24.000000
  0.190476  0.095238  0.000000     24.000000
  0.238095  0.095238  0.000000     24.000000
  0.285714  0.095238  0.000000     24.000000
  0.333333  0.095238  0.000000     24.000000
  0.380952  0.095238  0.000000     24.000000
  0.428571  0.095238  0.000000     24.000000
  0.476190  0.095238  0.000000     24.000000
 -0.476190  0.095238  0.000000     24.000000
 -0.428571  0.095238  0.000000     24.000000
 -0.380952  0.095238  0.000000     24.000000
 -0.333333  0.095238  0.000000     24.000000
 -0.285714  0.095238  0.000000     24.000000
 -0.238095  0.095238  0.000000     24.000000
 -0.190476  0.095238  0.000000     24.000000
 -0.142857  0.095238  0.000000     24.000000
 -0.095238  0.095238  0.000000     12.000000
  0.142857  0.142857  0.000000      6.000000
  0.190476  0.142857  0.000000     24.000000
  0.238095  0.142857  0.000000     24.000000
  0.285714  0.142857  0.000000     24.000000
  0.333333  0.142857  0.000000     24.000000
  0.380952  0.142857  0.000000     24.000000
  0.428571  0.142857  0.000000     24.000000
  0.476190  0.142857  0.000000     24.000000
 -0.476190  0.142857  0.000000     24.000000
 -0.428571  0.142857  0.000000     24.000000
 -0.380952  0.142857  0.000000     24.000000
[...]
 -0.380952  0.428571  0.142857     48.000000
 -0.333333  0.428571  0.142857     48.000000
 -0.285714  0.428571  0.142857     24.000000
 -0.380952  0.476190  0.142857     24.000000
 -0.333333  0.476190  0.142857     24.000000
 -0.428571  0.380952  0.190476     24.000000
 -0.380952  0.380952  0.190476     48.000000
 -0.333333  0.380952  0.190476     48.000000
 -0.380952  0.428571  0.190476     24.000000
 -0.333333  0.428571  0.190476     48.000000
[...]
 k-point 52 :   0.2381 0.1429 0.0000  plane waves:     432
 k-point 53 :   0.2857 0.1429 0.0000  plane waves:     438
 k-point 54 :   0.3333 0.1429 0.0000  plane waves:     430
 k-point 55 :   0.3810 0.1429 0.0000  plane waves:     427
 k-point 56 :   0.4286 0.1429 0.0000  plane waves:     431
 k-point 57 :   0.4762 0.1429 0.0000  plane waves:     429
 k-point 58 :  -0.4762 0.1429 0.0000  plane waves:     429
 k-point 59 :  -0.4286 0.1429 0.0000  plane waves:     432
 k-point 60 :  -0.3810 0.1429 0.0000  plane waves:     429
[...]
 k-point 85 :   0.4762 0.2381 0.0000  plane waves:     429
 k-point 86 :  -0.4762 0.2381 0.0000  plane waves:     427
 k-point 87 :  -0.4286 0.2381 0.0000  plane waves:     428
 k-point 88 :  -0.3810 0.2381 0.0000  plane waves:     424
 k-point 89 :  -0.3333 0.2381 0.0000  plane waves:     424
 k-point 90 :  -0.2857 0.2381 0.0000  plane waves:     425
 k-point 91 :  -0.2381 0.2381 0.0000  plane waves:     423
 k-point 92 :   0.2857 0.2857 0.0000  plane waves:     431
 k-point 93 :   0.3333 0.2857 0.0000  plane waves:     435
 k-point 94 :   0.3810 0.2857 0.0000  plane waves:     434
 k-point 95 :   0.4286 0.2857 0.0000  plane waves:     429
 k-point 96 :   0.4762 0.2857 0.0000  plane waves:     431
 k-point 97 :  -0.4762 0.2857 0.0000  plane waves:     429
 k-point 98 :  -0.4286 0.2857 0.0000  plane waves:     428
 k-point 99 :  -0.3810 0.2857 0.0000  plane waves:     424
 k-point ** :  -0.3333 0.2857 0.0000  plane waves:     429
 k-point ** :  -0.2857 0.2857 0.0000  plane waves:     431
 k-point ** :   0.3333 0.3333 0.0000  plane waves:     432
 k-point ** :   0.3810 0.3333 0.0000  plane waves:     437
 k-point ** :   0.4286 0.3333 0.0000  plane waves:     436
 k-point ** :   0.4762 0.3333 0.0000  plane waves:     429
 k-point ** :  -0.4762 0.3333 0.0000  plane waves:     431
 k-point ** :  -0.4286 0.3333 0.0000  plane waves:     429
 k-point ** :  -0.3810 0.3333 0.0000  plane waves:     430
 k-point ** :  -0.3333 0.3333 0.0000  plane waves:     431
 k-point ** :   0.3810 0.3810 0.0000  plane waves:     444
 k-point ** :   0.4286 0.3810 0.0000  plane waves:     436
 k-point ** :   0.4762 0.3810 0.0000  plane waves:     435
 k-point ** :  -0.4762 0.3810 0.0000  plane waves:     429
 k-point ** :  -0.4286 0.3810 0.0000  plane waves:     433
 k-point ** :  -0.3810 0.3810 0.0000  plane waves:     432
 k-point ** :   0.4286 0.4286 0.0000  plane waves:     444
 k-point ** :   0.4762 0.4286 0.0000  plane waves:     438
 k-point ** :  -0.4762 0.4286 0.0000  plane waves:     436
 k-point ** :  -0.4286 0.4286 0.0000  plane waves:     430
 k-point ** :   0.4762 0.4762 0.0000  plane waves:     444
 k-point ** :  -0.4762 0.4762 0.0000  plane waves:     444
 k-point ** :   0.1429 0.0952 0.0476  plane waves:     429
 k-point ** :   0.1905 0.0952 0.0476  plane waves:     429
 k-point ** :   0.2381 0.0952 0.0476  plane waves:     430
 k-point ** :   0.2857 0.0952 0.0476  plane waves:     430
 k-point ** :   0.3333 0.0952 0.0476  plane waves:     426
 k-point ** :   0.3810 0.0952 0.0476  plane waves:     429
 k-point ** :   0.4286 0.0952 0.0476  plane waves:     426
 k-point ** :   0.4762 0.0952 0.0476  plane waves:     430
 k-point ** :  -0.4762 0.0952 0.0476  plane waves:     429
 k-point ** :   0.1905 0.1429 0.0476  plane waves:     429
 k-point ** :   0.2381 0.1429 0.0476  plane waves:     428
 k-point ** :   0.2857 0.1429 0.0476  plane waves:     431
 k-point ** :   0.3333 0.1429 0.0476  plane waves:     431
 k-point ** :   0.3810 0.1429 0.0476  plane waves:     429
 k-point ** :   0.4286 0.1429 0.0476  plane waves:     428
 k-point ** :   0.4762 0.1429 0.0476  plane waves:     427
 k-point ** :  -0.4762 0.1429 0.0476  plane waves:     428
 k-point ** :  -0.4286 0.1429 0.0476  plane waves:     431
 k-point ** :  -0.3810 0.1429 0.0476  plane waves:     429
 k-point ** :  -0.3333 0.1429 0.0476  plane waves:     429
 k-point ** :  -0.2857 0.1429 0.0476  plane waves:     429
 k-point ** :  -0.2381 0.1429 0.0476  plane waves:     428
 k-point ** :  -0.1905 0.1429 0.0476  plane waves:     430
 k-point ** :  -0.1429 0.1429 0.0476  plane waves:     431
 k-point ** :  -0.0952 0.1429 0.0476  plane waves:     431
 k-point ** :   0.2381 0.1905 0.0476  plane waves:     428
 k-point ** :   0.2857 0.1905 0.0476  plane waves:     432
 k-point ** :   0.3333 0.1905 0.0476  plane waves:     433
 k-point ** :   0.3810 0.1905 0.0476  plane waves:     432
 k-point ** :   0.4286 0.1905 0.0476  plane waves:     431
 k-point ** :   0.4762 0.1905 0.0476  plane waves:     431
 k-point ** :  -0.4762 0.1905 0.0476  plane waves:     429
 k-point ** :  -0.4286 0.1905 0.0476  plane waves:     428
 k-point ** :  -0.3810 0.1905 0.0476  plane waves:     429
 k-point ** :  -0.3333 0.1905 0.0476  plane waves:     427
 k-point ** :  -0.2857 0.1905 0.0476  plane waves:     426
 k-point ** :  -0.2381 0.1905 0.0476  plane waves:     426
 k-point ** :  -0.1905 0.1905 0.0476  plane waves:     426
[...]
 k-point ** :  -0.3810 0.4286 0.1429  plane waves:     431
 k-point ** :  -0.3333 0.4286 0.1429  plane waves:     427
 k-point ** :  -0.2857 0.4286 0.1429  plane waves:     428
 k-point ** :  -0.3810 0.4762 0.1429  plane waves:     428
 k-point ** :  -0.3333 0.4762 0.1429  plane waves:     428
 k-point ** :  -0.4286 0.3810 0.1905  plane waves:     422
 k-point ** :  -0.3810 0.3810 0.1905  plane waves:     424
 k-point ** :  -0.3333 0.3810 0.1905  plane waves:     423
 k-point ** :  -0.3810 0.4286 0.1905  plane waves:     423
 k-point ** :  -0.3333 0.4286 0.1905  plane waves:     425
 k-point ** :  -0.2857 0.4286 0.1905  plane waves:     428
 k-point ** :  -0.2381 0.4286 0.1905  plane waves:     426
 k-point ** :  -0.3333 0.4762 0.1905  plane waves:     427
 k-point ** :  -0.2857 0.4762 0.1905  plane waves:     427
 k-point ** :  -0.2857 0.4762 0.2381  plane waves:     424

 maximum and minimum number of plane-waves per node :       444      411

 maximum number of plane-waves:       444
 maximum index in each direction:
   IXMAX=    5   IYMAX=    5   IZMAX=    5
   IXMIN=   -5   IYMIN=   -5   IZMIN=   -5

 NGX is ok and might be reduce to  22
 NGY is ok and might be reduce to  22
 NGZ is ok and might be reduce to  22

 serial   3D FFT for wavefunctions
 parallel 3D FFT for charge:
    minimum data exchange during FFTs selected (reduces bandwidth)

 Broyden mixing: mesh for mixing (old mesh)
   NGX = 11   NGY = 11   NGZ = 11
  (NGX  = 48   NGY  = 48   NGZ  = 48)
  gives a total of   1331 points

 initial charge density was supplied:
 charge density of overlapping atoms calculated
 number of electron      18.0000000 magnetization
 keeping initial charge density in first step

 Maximum index for augmentation-charges        27115 (set IRDMAX)

 First call to EWALD:  gamma=   0.691
 Maximum number of real-space cells 3x 3x 3
 Maximum number of reciprocal cells 3x 3x 3

 FEWALD executed in parallel

----------------------------------------- Iteration    1(   1)  ---------------------------------------

 eigenvalue-minimisations  : 14300
 total energy-change (2. order) :-0.5545771E+02  (-0.4639591E+03)
 number of electron      18.0000000 magnetization
 augmentation part       18.0000000 magnetization

 Free energy of the ion-electron system (eV)
  alpha Z        PSCENC =       115.92183730
  Ewald energy   TEWEN  =     -1823.56586453
  -Hartree energ DENC   =      -426.77608094
  -exchange      EXHF   =         0.00000000
  -V(xc)+E(xc)   XCENC  =        93.47397373
  PAW double counting   =      1750.63120628    -1765.52358434
  entropy T*S    EENTRO =        -0.00068587
  eigenvalues    EBANDS =      -211.30784000
  atomic energy  EATOM  =      2211.68932980
  Solvation  Ediel_sol  =         0.00000000
  free energy    TOTEN  =       -55.45770857 eV

  energy without entropy =      -55.45702270  energy(sigma->0) =      -55.45736563

[...]

 eigenvalue-minimisations  : 14300
 total energy-change (2. order) : 0.3172067E+02  (-0.2539851E+02)
 number of electron      18.0000000 magnetization
 augmentation part       18.0000000 magnetization

[...]

 Broyden mixing:
  rms(total) = 0.33770E+01    rms(broyden)= 0.33770E+01
  rms(prec ) = 0.64932E+01
  weight for this iteration     100.00

[...]

 eigenvalues of (default mixing * dielectric matrix)
  average eigenvalue GAMMA=   0.7424
  0.7424

[...]

 eigenvalue-minimisations  : 41856
 total energy-change (2. order) :-0.5023899E-02  (-0.1528761E-02)
 number of electron      18.0000005 magnetization
 augmentation part        5.3766671 magnetization

[...]

WARNING in EDDRMM: call to ZHEGV failed, returncode =   8  4 44
WARNING in EDDRMM: call to ZHEGV failed, returncode =   8  4 44

[...]

 Broyden mixing:
  rms(total) = 0.86069E-03    rms(broyden)= 0.86068E-03
  rms(prec ) = 0.23505E-02
  weight for this iteration     100.00

 eigenvalues of (default mixing * dielectric matrix)
  average eigenvalue GAMMA=   1.4018
  2.5901  2.4236  1.4432  0.5181  1.0237  1.0237  0.7904

[...]

----------------------------------------- Iteration    1(  13)  ---------------------------------------

WARNING in EDDRMM: call to ZHEGV failed, returncode =   6  3 37
WARNING in EDDRMM: call to ZHEGV failed, returncode =   6  3 44

 eigenvalue-minimisations  : 38011
 total energy-change (2. order) : 0.6028531E-06  (-0.4390796E-08)
 number of electron      18.0000005 magnetization
 augmentation part        5.2652612 magnetization

 Free energy of the ion-electron system (eV)
  alpha Z        PSCENC =       115.92183730
  Ewald energy   TEWEN  =     -1823.56586453
  -Hartree energ DENC   =      -393.66466940
  -exchange      EXHF   =         0.00000000
  -V(xc)+E(xc)   XCENC  =        92.30249298
  PAW double counting   =      3425.88327631    -3443.97602687
  entropy T*S    EENTRO =        -0.00241720
  eigenvalues    EBANDS =      -204.67136706
  atomic energy  EATOM  =      2211.68932980
  Solvation  Ediel_sol  =         0.00000000
  free energy    TOTEN  =       -20.08340867 eV

  energy without entropy =      -20.08099147  energy(sigma->0) =      -20.08220007

 average (electrostatic) potential at core
  the test charge radii are     0.9956  0.9051
  (the norm of the test charge is              1.0000)
       1 -68.4371       2 -68.8325

 E-fermi :  12.8174     XC(G=0): -14.0210     alpha+bet :-20.5016

 k-point     1 :       0.0000    0.0000    0.0000
  band No.  band energies     occupation
      1     -52.2287      2.00000
      2     -26.0273      2.00000
      3     -26.0273      2.00000
      4     -26.0273      2.00000
      5      -5.3529      2.00000
      6      10.5375      2.00000
      7      10.5375      2.00000
      8      10.5375      2.00000
      9      11.1880      2.00000
     10      11.1880      2.00000
     11      11.1880      2.00000
     12      12.2908      2.00000
     13      12.2908      2.00000
     14      19.2316      0.00000
     15      26.7224      0.00000
     16      33.1173      0.00000
     17      33.1173      0.00000
     18      33.1173      0.00000
     19      41.0182      0.00000
     20      41.0182      0.00000
     21      41.6906      0.00000
     22      41.6906      0.00000
     23      41.6906      0.00000
     24      50.2114      0.00000
     25      50.2114      0.00000
     26      50.2114      0.00000
     27      57.1845      0.00000
     28      62.4920      0.00000
     29      62.4920      0.00000
     30      62.4920      0.00000
     31      67.7792      0.00000
     32      67.7792      0.00000
     33      72.0217      0.00000
     34      72.0217      0.00000
     35      72.0217      0.00000
     36      82.3636      0.00000
     37      85.7381      0.00000
     38      85.7399      0.00000
     39      85.7628      0.00000
     40      87.5769      0.00000
     41      89.7559      0.00000
     42      89.8020      0.00000
     43      89.9797      0.00000
     44      91.8793      0.00000
     45      91.9700      0.00000
     46      92.0690      0.00000
     47      92.1483      0.00000
     48      92.8085      0.00000
     49      94.8055      0.00000
     50      96.9478      0.00000

[...]

 k-point   286 :      -0.2857    0.4762    0.2381
  band No.  band energies     occupation
      1     -52.1099      2.00000
      2     -26.3841      2.00000
      3     -26.3569      2.00000
      4     -26.2265      2.00000
      5      -2.9728      2.00000
      6       6.2226      2.00000
      7       6.4446      2.00000
      8       6.7086      2.00000
      9      12.8140      1.07622
     10      13.1088      0.00000
     11      14.1451      0.00000
     12      15.1814      0.00000
     13      15.8722      0.00000
     14      25.1435      0.00000
     15      25.3015      0.00000
     16      26.4380      0.00000
     17      30.2924      0.00000
     18      35.4802      0.00000
     19      35.9030      0.00000
     20      42.8024      0.00000
     21      46.3083      0.00000
     22      46.4955      0.00000
     23      49.5162      0.00000
     24      49.5330      0.00000
     25      53.8294      0.00000
     26      55.1836      0.00000
     27      55.8698      0.00000
     28      56.5954      0.00000
     29      57.1011      0.00000
     30      57.9166      0.00000
     31      62.0431      0.00000
     32      62.9544      0.00000
     33      64.8752      0.00000
     34      65.8053      0.00000
     35      70.3613      0.00000
     36      74.4152      0.00000
     37      76.1108      0.00000
     38      80.4163      0.00000
     39      83.8534      0.00000
     40      84.0474      0.00000
     41      85.7071      0.00000
     42      87.5325      0.00000
     43      88.2345      0.00000
     44      90.1646      0.00000
     45      93.3817      0.00000
     46      95.5800      0.00000
     47      96.1525      0.00000
     48      97.9751      0.00000
     49     101.9209      0.00000
     50     102.3326      0.00000

 soft charge-density along one line, spin component           1
         0         1         2         3         4         5         6         7         8         9
 total charge-density along one line

------------------------ aborting loop because EDIFF is reached ----------------------------------------

  FORCE on cell =-STRESS in cart. coord.  units (eV):
  Direction    XX          YY          ZZ          XY          YZ          ZX
  Alpha Z   115.92184   115.92184   115.92184
  Ewald    -607.85544  -607.85544  -607.85544     0.00000     0.00000     0.00000
  Hartree   131.22437   131.22437   131.22437     0.00000     0.00000     0.00000
  E(xc)     -92.88852   -92.88852   -92.88852     0.00000     0.00000     0.00000
  Local     110.96615   110.96615   110.96615    -0.00000    -0.00000    -0.00000
  n-local   -19.61195   -20.03435   -17.60206     2.03901    -2.81594     1.97055
  augment    89.74362    89.74362    89.74362     0.00000     0.00000     0.00000
  Kinetic   276.77129   278.72648   260.31345     3.26921    -7.20842     5.22233
  Fock        0.00000     0.00000     0.00000     0.00000     0.00000     0.00000
  Total      -0.03369    -0.03369    -0.03369     0.00000     0.00000    -0.00000
  in kB      -3.19965    -3.19965    -3.19965     0.00000     0.00000    -0.00000

 VOLUME and BASIS-vectors are now :
  energy-cutoff  :      500.00
  volume of cell :       16.87
      direct lattice vectors                 reciprocal lattice vectors
     0.000000000  2.035576500  2.035576500    -0.245630660  0.245630660  0.245630660
     2.035576500  0.000000000  2.035576500     0.245630660 -0.245630660  0.245630660
     2.035576500  2.035576500  0.000000000     0.245630660  0.245630660 -0.245630660

  length of vectors
     2.878739894  2.878739894  2.878739894     0.425444784  0.425444784  0.425444784

 FORCES acting on ions
    electron-ion (+dipol)            ewald-force                    non-local-force                 convergence-correction
   -.371E-13 -.296E-13 -.223E-13   -.258E-14 -.667E-14 -.309E-15   0.207E-24 0.207E-24 -.165E-23   0.149E-13 -.178E-13 0.750E-14
   0.845E-12 -.116E-11 -.619E-12   0.173E-14 0.807E-15 0.144E-14   -.124E-23 -.207E-23 0.165E-23   0.158E-14 -.334E-14 -.338E-15
   0.808E-12 -.119E-11 -.642E-12   -.852E-15 -.586E-14 0.113E-14   -.103E-23 -.186E-23 0.000E+00   0.165E-13 -.211E-13 0.716E-14

 POSITION                                       TOTAL-FORCE (eV/Angst)
      0.00000      0.00000      0.00000         0.000000      0.000000     -0.000000
      2.03558      2.03558      2.03558         0.000000      0.000000      0.000000
    total drift:                                0.000000     -0.000000     -0.000000

  FREE ENERGIE OF THE ION-ELECTRON SYSTEM (eV)
  free  energy   TOTEN  =       -20.08340867 eV

  energy  without entropy=      -20.08099147  energy(sigma->0) =      -20.08220007