 vasp.5.4.1 24Jun15 (build Jan 21 2017 23:00:56) complex

 executed on           IFC91_ompi date 2017.01.22  08:32:28

 INCAR:
 POTCAR:    PAW_PBE V_sv 02Aug2007
 POTCAR:    PAW_PBE N_s 07Sep2000
 POTCAR:    PAW_PBE V_sv 02Aug2007
   VRHFIN =V: p6 d4 s1

   TITEL  = PAW_PBE V_sv 02Aug2007
   POMASS =   50.941; ZVAL   =   13.000    mass and valenz
   ENMAX  =  263.673; ENMIN  =  197.755 eV

 POTCAR:    PAW_PBE N_s 07Sep2000
   VRHFIN =N: s2p3

   TITEL  = PAW_PBE N_s 07Sep2000
   POMASS =   14.001; ZVAL   =    5.000    mass and valenz
   ENMAX  =  279.692; ENMIN  =  209.769 eV

  PAW_PBE V_sv 02Aug2007                :
  PAW_PBE N_s 07Sep2000                 :

 POSCAR: VN
  positions in direct lattice
 exchange correlation table for  LEXCH =       13
   RHO(1)=    0.500       N(1)  =     2000
   RHO(2)=  100.500       N(2)  =     4000

 ion  position               nearest neighbor table
   1  0.000  0.000  0.000-   2 2.04   2 2.04   2 2.04   2 2.04   2 2.04   2 2.04
   2  0.500  0.500  0.500-   1 2.04   1 2.04   1 2.04   1 2.04   1 2.04   1 2.04

  LATTYP: Found a face centered cubic cell.
 ALAT       =     4.0711530000

  Lattice vectors:

 A1 = (   0.0000000000,   2.0355765000,   2.0355765000)
 A2 = (   2.0355765000,   0.0000000000,   2.0355765000)
 A3 = (   2.0355765000,   2.0355765000,   0.0000000000)

Analysis of symmetry for initial positions (statically):
 Subroutine PRICEL returns:
 Original cell was already a primitive cell.

 Routine SETGRP: Setting up the symmetry group for a
 face centered cubic supercell.

 Subroutine GETGRP returns: Found 48 space group operations
 (whereof 48 operations were pure point group operations)
 out of a pool of 48 trial point group operations.

The static configuration has the point symmetry O_h .

Analysis of symmetry for dynamics (positions and initial velocities):
 Subroutine PRICEL returns:
 Original cell was already a primitive cell.

 Routine SETGRP: Setting up the symmetry group for a
 face centered cubic supercell.

 Subroutine GETGRP returns: Found 48 space group operations
 (whereof 48 operations were pure point group operations)
 out of a pool of 48 trial point group operations.

The dynamic configuration has the point symmetry O_h .

 Subroutine INISYM returns: Found 48 space group operations
 (whereof 48 operations are pure point group operations),
 and found     1 'primitive' translations

 KPOINTS: k-point high symmetry path
  interpolating k-points between supplied coordinates
  k-points in reciprocal lattice
Space group operators:
 irot       det(A)        alpha          n_x          n_y          n_z        tau_x        tau_y        tau_z
    1     1.000000     0.000000     1.000000     0.000000     0.000000     0.000000     0.000000     0.000000
    2    -1.000000     0.000000     1.000000     0.000000     0.000000     0.000000     0.000000     0.000000
    3     1.000000   120.000000    -0.577350    -0.577350    -0.577350     0.000000     0.000000     0.000000
    4    -1.000000   120.000000    -0.577350    -0.577350    -0.577350     0.000000     0.000000     0.000000
    5     1.000000   120.000000     0.577350     0.577350     0.577350     0.000000     0.000000     0.000000
    6    -1.000000   120.000000     0.577350     0.577350     0.577350     0.000000     0.000000     0.000000
    7     1.000000    90.000000     0.000000     0.000000    -1.000000     0.000000     0.000000     0.000000
    8    -1.000000    90.000000     0.000000     0.000000    -1.000000     0.000000     0.000000     0.000000
    9     1.000000   180.000000     0.000000     0.707107     0.707107     0.000000     0.000000     0.000000
   10    -1.000000   180.000000     0.000000     0.707107     0.707107     0.000000     0.000000     0.000000
   11     1.000000    90.000000     0.000000     1.000000     0.000000     0.000000     0.000000     0.000000
   12    -1.000000    90.000000     0.000000     1.000000     0.000000     0.000000     0.000000     0.000000
   13     1.000000   180.000000     0.000000     0.000000     1.000000     0.000000     0.000000     0.000000
   14    -1.000000   180.000000     0.000000     0.000000     1.000000     0.000000     0.000000     0.000000
   15     1.000000   120.000000    -0.577350     0.577350     0.577350     0.000000     0.000000     0.000000
   16    -1.000000   120.000000    -0.577350     0.577350     0.577350     0.000000     0.000000     0.000000
   17     1.000000   120.000000    -0.577350     0.577350    -0.577350     0.000000     0.000000     0.000000
   18    -1.000000   120.000000    -0.577350     0.577350    -0.577350     0.000000     0.000000     0.000000
   19     1.000000    90.000000     0.000000     0.000000     1.000000     0.000000     0.000000     0.000000
   20    -1.000000    90.000000     0.000000     0.000000     1.000000     0.000000     0.000000     0.000000
   21     1.000000    90.000000    -1.000000     0.000000     0.000000     0.000000     0.000000     0.000000
   22    -1.000000    90.000000    -1.000000     0.000000     0.000000     0.000000     0.000000     0.000000
   23     1.000000   180.000000     0.707107     0.000000     0.707107     0.000000     0.000000     0.000000
   24    -1.000000   180.000000     0.707107     0.000000     0.707107     0.000000     0.000000     0.000000
   25     1.000000   120.000000     0.577350    -0.577350     0.577350     0.000000     0.000000     0.000000
   26    -1.000000   120.000000     0.577350    -0.577350     0.577350     0.000000     0.000000     0.000000
   27     1.000000   120.000000    -0.577350    -0.577350     0.577350     0.000000     0.000000     0.000000
   28    -1.000000   120.000000    -0.577350    -0.577350     0.577350     0.000000     0.000000     0.000000
   29     1.000000   180.000000     1.000000     0.000000     0.000000     0.000000     0.000000     0.000000
   30    -1.000000   180.000000     1.000000     0.000000     0.000000     0.000000     0.000000     0.000000
   31     1.000000    90.000000     0.000000    -1.000000     0.000000     0.000000     0.000000     0.000000
   32    -1.000000    90.000000     0.000000    -1.000000     0.000000     0.000000     0.000000     0.000000
   33     1.000000   180.000000     0.707107     0.707107     0.000000     0.000000     0.000000     0.000000
   34    -1.000000   180.000000     0.707107     0.707107     0.000000     0.000000     0.000000     0.000000
   35     1.000000    90.000000     1.000000     0.000000     0.000000     0.000000     0.000000     0.000000
   36    -1.000000    90.000000     1.000000     0.000000     0.000000     0.000000     0.000000     0.000000
   37     1.000000   120.000000     0.577350    -0.577350    -0.577350     0.000000     0.000000     0.000000
   38    -1.000000   120.000000     0.577350    -0.577350    -0.577350     0.000000     0.000000     0.000000
   39     1.000000   180.000000     0.000000     1.000000     0.000000     0.000000     0.000000     0.000000
   40    -1.000000   180.000000     0.000000     1.000000     0.000000     0.000000     0.000000     0.000000
   41     1.000000   120.000000     0.577350     0.577350    -0.577350     0.000000     0.000000     0.000000
   42    -1.000000   120.000000     0.577350     0.577350    -0.577350     0.000000     0.000000     0.000000
   43     1.000000   180.000000     0.000000    -0.707107     0.707107     0.000000     0.000000     0.000000
   44    -1.000000   180.000000     0.000000    -0.707107     0.707107     0.000000     0.000000     0.000000
   45     1.000000   180.000000     0.707107    -0.707107     0.000000     0.000000     0.000000     0.000000
   46    -1.000000   180.000000     0.707107    -0.707107     0.000000     0.000000     0.000000     0.000000
   47     1.000000   180.000000     0.707107     0.000000    -0.707107     0.000000     0.000000     0.000000
   48    -1.000000   180.000000     0.707107     0.000000    -0.707107     0.000000     0.000000     0.000000

 I would recommend the setting:
   dimension x,y,z NGX =    21 NGY =   21 NGZ =   21
 SYSTEM =  unknown system
 POSCAR =  VN

 Startparameter for this run:
   NWRITE =      2    write-flag & timer
   PREC   = accura    normal or accurate (medium, high low for compatibility)
   ISTART =      0    job   : 0-new  1-cont  2-samecut
   ICHARG =     11    charge: 1-file 2-atom 10-const
   ISPIN  =      1    spin polarized calculation?
   LNONCOLLINEAR =      F non collinear calculations
   LSORBIT =      F    spin-orbit coupling
   INIWAV =      1    electr: 0-lowe 1-rand  2-diag
   LASPH  =      F    aspherical Exc in radial PAW
   METAGGA=      F    non-selfconsistent MetaGGA calc.

 Electronic Relaxation 1
   ENCUT  =  500.0 eV  36.75 Ry    6.06 a.u.   5.25  5.25  5.25*2*pi/ulx,y,z
   ENINI  =  500.0     initial cutoff
   ENAUG  =  526.6 eV  augmentation charge cutoff
   NELM   =    200;   NELMIN=  2; NELMDL= -5     # of ELM steps
   EDIFF  = 0.1E-05   stopping-criterion for ELM
   LREAL  =      F    real-space projection
   NLSPLINE    = F    spline interpolate recip. space projectors
   LCOMPAT=      F    compatible to vasp.4.4
   GGA_COMPAT  = T    GGA compatible to vasp.4.4-vasp.4.6
   LMAXPAW     = -100 max onsite density
   LMAXMIX     =    2 max onsite mixed and CHGCAR
   VOSKOWN=      0    Vosko Wilk Nusair interpolation
   ROPT   =    0.00000   0.00000
 Ionic relaxation
   EDIFFG = 0.1E-05   stopping-criterion for IOM
   NSW    =      0    number of steps for IOM
   NBLOCK =      1;   KBLOCK =      1    inner block; outer block
   IBRION =     -1    ionic relax: 0-MD 1-quasi-New 2-CG
   NFREE  =      0    steps in history (QN), initial steepest desc. (CG)
   ISIF   =      3    stress and relaxation
   IWAVPR =     10    prediction:  0-non 1-charg 2-wave 3-comb
   ISYM   =      2    0-nonsym 1-usesym 2-fastsym
   LCORR  =      T    Harris-Foulkes like correction to forces

   POTIM  = 0.2000    time-step for ionic-motion
   TEIN   =    0.0    initial temperature
   TEBEG  =    0.0;   TEEND  =   0.0 temperature during run
   SMASS  =  -3.00    Nose mass-parameter (am)
   estimated Nose-frequenzy (Omega)   =  0.10E-29 period in steps =****** mass=  -0.189E-27a.u.
   SCALEE = 1.0000    scale energy and forces
   NPACO  =    256;   APACO  = 16.0  distance and # of slots for P.C.
   PSTRESS=    0.0 pullay stress

  Mass of Ions in am
   POMASS =  50.94 14.00
  Ionic Valenz
   ZVAL   =  13.00  5.00
  Atomic Wigner-Seitz radii
  virtual crystal weights
   VCA    =   1.00  1.00
   NELECT =      18.0000    total number of electrons
   NUPDOWN=      -1.0000    fix difference up-down

 DOS related values:
   EMIN   =  10.00;   EMAX   =-10.00  energy-range for DOS
   EFERMI =   0.00
   ISMEAR =     0;   SIGMA  =   0.05  broadening in eV -4-tet -1-fermi 0-gaus

 Electronic relaxation 2 (details)
   IALGO  =     48    algorithm
   LDIAG  =      T    sub-space diagonalisation (order eigenvalues)
   LSUBROT=      F    optimize rotation matrix (better conditioning)
   TURBO    =      0    0=normal 1=particle mesh
   IRESTART =      0    0=no restart 2=restart with 2 vectors
   NREBOOT  =      0    no. of reboots
   NMIN     =      0    reboot dimension
   EREF     =   0.00    reference energy to select bands
[...]
 k-point 17 :   0.0000 0.2051 0.2051  plane waves:     431
 k-point 18 :   0.0000 0.2179 0.2179  plane waves:     431
 k-point 19 :   0.0000 0.2308 0.2308  plane waves:     431
 k-point 20 :   0.0000 0.2436 0.2436  plane waves:     431
 k-point 21 :   0.0000 0.2564 0.2564  plane waves:     431
 k-point 22 :   0.0000 0.2692 0.2692  plane waves:     431
 k-point 23 :   0.0000 0.2821 0.2821  plane waves:     431
 k-point 24 :   0.0000 0.2949 0.2949  plane waves:     432
 k-point 25 :   0.0000 0.3077 0.3077  plane waves:     432
 k-point 26 :   0.0000 0.3205 0.3205  plane waves:     432
 k-point 27 :   0.0000 0.3333 0.3333  plane waves:     432
 k-point 28 :   0.0000 0.3462 0.3462  plane waves:     432
 k-point 29 :   0.0000 0.3590 0.3590  plane waves:     432
 k-point 30 :   0.0000 0.3718 0.3718  plane waves:     444
 k-point 31 :   0.0000 0.3846 0.3846  plane waves:     444
 k-point 32 :   0.0000 0.3974 0.3974  plane waves:     444
 k-point 33 :   0.0000 0.4103 0.4103  plane waves:     440
 k-point 34 :   0.0000 0.4231 0.4231  plane waves:     440
 k-point 35 :   0.0000 0.4359 0.4359  plane waves:     440
 k-point 36 :   0.0000 0.4487 0.4487  plane waves:     440
 k-point 37 :   0.0000 0.4615 0.4615  plane waves:     444
 k-point 38 :   0.0000 0.4744 0.4744  plane waves:     444
 k-point 39 :   0.0000 0.4872 0.4872  plane waves:     444
 k-point 40 :   0.0000 0.5000 0.5000  plane waves:     444
 k-point 41 :   1.0000 0.5000 0.5000  plane waves:     444
 k-point 42 :   0.9936 0.4968 0.4968  plane waves:     444
 k-point 43 :   0.9872 0.4936 0.4936  plane waves:     444
 k-point 44 :   0.9808 0.4904 0.4904  plane waves:     444
 k-point 45 :   0.9744 0.4872 0.4872  plane waves:     444
 k-point 46 :   0.9679 0.4840 0.4840  plane waves:     444
 k-point 47 :   0.9615 0.4808 0.4808  plane waves:     444
 k-point 48 :   0.9551 0.4776 0.4776  plane waves:     444
 k-point 49 :   0.9487 0.4744 0.4744  plane waves:     444
 k-point 50 :   0.9423 0.4712 0.4712  plane waves:     442
 k-point 51 :   0.9359 0.4679 0.4679  plane waves:     442
 k-point 52 :   0.9295 0.4647 0.4647  plane waves:     438
 k-point 53 :   0.9231 0.4615 0.4615  plane waves:     438
 k-point 54 :   0.9167 0.4583 0.4583  plane waves:     438
 k-point 55 :   0.9103 0.4551 0.4551  plane waves:     438
 k-point 56 :   0.9038 0.4519 0.4519  plane waves:     432
 k-point 57 :   0.8974 0.4487 0.4487  plane waves:     432
 k-point 58 :   0.8910 0.4455 0.4455  plane waves:     428
 k-point 59 :   0.8846 0.4423 0.4423  plane waves:     428
 k-point 60 :   0.8782 0.4391 0.4391  plane waves:     430
[...]
 k-point 85 :   0.6731 0.3365 0.3365  plane waves:     431
 k-point 86 :   0.6538 0.3269 0.3269  plane waves:     431
 k-point 87 :   0.6346 0.3173 0.3173  plane waves:     431
 k-point 88 :   0.6154 0.3077 0.3077  plane waves:     431
 k-point 89 :   0.5962 0.2981 0.2981  plane waves:     431
 k-point 90 :   0.5769 0.2885 0.2885  plane waves:     431
 k-point 91 :   0.5577 0.2788 0.2788  plane waves:     423
 k-point 92 :   0.5385 0.2692 0.2692  plane waves:     423
 k-point 93 :   0.5192 0.2596 0.2596  plane waves:     423
 k-point 94 :   0.5000 0.2500 0.2500  plane waves:     423
 k-point 95 :   0.4808 0.2404 0.2404  plane waves:     423
 k-point 96 :   0.4615 0.2308 0.2308  plane waves:     423
 k-point 97 :   0.4423 0.2212 0.2212  plane waves:     427
 k-point 98 :   0.4231 0.2115 0.2115  plane waves:     427
 k-point 99 :   0.4038 0.2019 0.2019  plane waves:     429
 k-point ** :   0.3846 0.1923 0.1923  plane waves:     429
 k-point ** :   0.3654 0.1827 0.1827  plane waves:     429
 k-point ** :   0.3462 0.1731 0.1731  plane waves:     433
 k-point ** :   0.3269 0.1635 0.1635  plane waves:     429
 k-point ** :   0.3077 0.1538 0.1538  plane waves:     437
 k-point ** :   0.2885 0.1442 0.1442  plane waves:     437
 k-point ** :   0.2692 0.1346 0.1346  plane waves:     437
 k-point ** :   0.2500 0.1250 0.1250  plane waves:     421
 k-point ** :   0.2308 0.1154 0.1154  plane waves:     429
 k-point ** :   0.2115 0.1058 0.1058  plane waves:     429
 k-point ** :   0.1923 0.0962 0.0962  plane waves:     425
 k-point ** :   0.1731 0.0865 0.0865  plane waves:     425
 k-point ** :   0.1538 0.0769 0.0769  plane waves:     425
 k-point ** :   0.1346 0.0673 0.0673  plane waves:     427
 k-point ** :   0.1154 0.0577 0.0577  plane waves:     423
 k-point ** :   0.0962 0.0481 0.0481  plane waves:     423
 k-point ** :   0.0769 0.0385 0.0385  plane waves:     423
 k-point ** :   0.0577 0.0288 0.0288  plane waves:     419
 k-point ** :   0.0385 0.0192 0.0192  plane waves:     411
 k-point ** :   0.0192 0.0096 0.0096  plane waves:     411
 k-point ** :   0.0000 0.0000 0.0000  plane waves:     411
 k-point ** :   0.0000 0.0000 0.0000  plane waves:     411
 k-point ** :   0.0128 0.0128 0.0128  plane waves:     411
 k-point ** :   0.0256 0.0256 0.0256  plane waves:     411
 k-point ** :   0.0385 0.0385 0.0385  plane waves:     417
 k-point ** :   0.0513 0.0513 0.0513  plane waves:     417
 k-point ** :   0.0641 0.0641 0.0641  plane waves:     423
 k-point ** :   0.0769 0.0769 0.0769  plane waves:     423
 k-point ** :   0.0897 0.0897 0.0897  plane waves:     423
 k-point ** :   0.1026 0.1026 0.1026  plane waves:     423
 k-point ** :   0.1154 0.1154 0.1154  plane waves:     423
 k-point ** :   0.1282 0.1282 0.1282  plane waves:     429
 k-point ** :   0.1410 0.1410 0.1410  plane waves:     429
 k-point ** :   0.1538 0.1538 0.1538  plane waves:     426
 k-point ** :   0.1667 0.1667 0.1667  plane waves:     426
 k-point ** :   0.1795 0.1795 0.1795  plane waves:     426
 k-point ** :   0.1923 0.1923 0.1923  plane waves:     429
 k-point ** :   0.2051 0.2051 0.2051  plane waves:     429
 k-point ** :   0.2179 0.2179 0.2179  plane waves:     429
 k-point ** :   0.2308 0.2308 0.2308  plane waves:     429
 k-point ** :   0.2436 0.2436 0.2436  plane waves:     429
 k-point ** :   0.2564 0.2564 0.2564  plane waves:     429
 k-point ** :   0.2692 0.2692 0.2692  plane waves:     429
 k-point ** :   0.2821 0.2821 0.2821  plane waves:     423
 k-point ** :   0.2949 0.2949 0.2949  plane waves:     422
 k-point ** :   0.3077 0.3077 0.3077  plane waves:     425
 k-point ** :   0.3205 0.3205 0.3205  plane waves:     425
 k-point ** :   0.3333 0.3333 0.3333  plane waves:     425
 k-point ** :   0.3462 0.3462 0.3462  plane waves:     425
 k-point ** :   0.3590 0.3590 0.3590  plane waves:     425
 k-point ** :   0.3718 0.3718 0.3718  plane waves:     422
 k-point ** :   0.3846 0.3846 0.3846  plane waves:     422
 k-point ** :   0.3974 0.3974 0.3974  plane waves:     422
 k-point ** :   0.4103 0.4103 0.4103  plane waves:     422
 k-point ** :   0.4231 0.4231 0.4231  plane waves:     422
 k-point ** :   0.4359 0.4359 0.4359  plane waves:     422
 k-point ** :   0.4487 0.4487 0.4487  plane waves:     422
 k-point ** :   0.4615 0.4615 0.4615  plane waves:     428
 k-point ** :   0.4744 0.4744 0.4744  plane waves:     428
 k-point ** :   0.4872 0.4872 0.4872  plane waves:     434
 k-point ** :   0.5000 0.5000 0.5000  plane waves:     434

 maximum and minimum number of plane-waves per node :       444      411

 maximum number of plane-waves:       444
 maximum index in each direction:
   IXMAX=    5   IYMAX=    5   IZMAX=    5
   IXMIN=   -6   IYMIN=   -5   IZMIN=   -5

 NGX is ok and might be reduce to  24
 NGY is ok and might be reduce to  22
 NGZ is ok and might be reduce to  22

 serial   3D FFT for wavefunctions
 parallel 3D FFT for charge:
    minimum data exchange during FFTs selected (reduces bandwidth)

 initial charge density was supplied:
 number of electron      18.0000005 magnetization
 keeping initial charge density in first step

 Maximum index for augmentation-charges        27115 (set IRDMAX)

 First call to EWALD:  gamma=   0.691
 Maximum number of real-space cells 3x 3x 3
 Maximum number of reciprocal cells 3x 3x 3

 FEWALD executed in parallel

----------------------------------------- Iteration    1(   1)  ---------------------------------------

 eigenvalue-minimisations  :  8000
 total energy-change (2. order) :-0.5899346E+02  (-0.4826712E+03)
 number of electron      18.0000005 magnetization
 augmentation part       18.0000005 magnetization

 Free energy of the ion-electron system (eV)
  alpha Z        PSCENC =       115.92183730
  Ewald energy   TEWEN  =     -1823.56586453
  -Hartree energ DENC   =      -393.66701707
  -exchange      EXHF   =         0.00000000
  -V(xc)+E(xc)   XCENC  =        92.30260291
  PAW double counting   =      3425.40895347    -3443.49507144
  entropy T*S    EENTRO =        -0.00150037
  eigenvalues    EBANDS =      -243.58673302
  atomic energy  EATOM  =      2211.68932980
  Solvation  Ediel_sol  =         0.00000000
  free energy    TOTEN  =       -58.99346294 eV

  energy without entropy =      -58.99196257  energy(sigma->0) =      -58.99271276

[...]

 eigenvalue-minimisations  :  8000
 total energy-change (2. order) : 0.4424042E+02  (-0.2418866E+02)
 number of electron      18.0000005 magnetization
 augmentation part       18.0000005 magnetization

[...]

----------------------------------------- Iteration    1(   8)  ---------------------------------------

 eigenvalue-minimisations  : 19295
 total energy-change (2. order) :-0.1316412E-06  (-0.8915555E-07)
 number of electron      18.0000005 magnetization
 augmentation part       18.0000005 magnetization

 Free energy of the ion-electron system (eV)
  alpha Z        PSCENC =       115.92183730
  Ewald energy   TEWEN  =     -1823.56586453
  -Hartree energ DENC   =      -393.66701707
  -exchange      EXHF   =         0.00000000
  -V(xc)+E(xc)   XCENC  =        92.30260291
  PAW double counting   =      3425.40895347    -3443.49507144
  entropy T*S    EENTRO =        -0.00139688
  eigenvalues    EBANDS =      -201.26406485
  atomic energy  EATOM  =      2211.68932980
  Solvation  Ediel_sol  =         0.00000000
  free energy    TOTEN  =       -16.67069128 eV

  energy without entropy =      -16.66929441  energy(sigma->0) =      -16.66999284

 average (electrostatic) potential at core
  the test charge radii are     0.9956  0.9051
  (the norm of the test charge is              1.0000)
       1 -68.4373       2 -68.8326

 E-fermi :  11.8170     XC(G=0): -14.0209     alpha+bet :-20.5016

 k-point     1 :       0.0000    0.0000    0.0000
  band No.  band energies     occupation
      1     -52.2289      2.00000
      2     -26.0274      2.00000
      3     -26.0274      2.00000
      4     -26.0274      2.00000
      5      -5.3529      2.00000
      6      10.5375      2.00000
      7      10.5375      2.00000
      8      10.5375      2.00000
      9      11.1815      2.00000
     10      11.1815      2.00000
     11      11.1815      2.00000
     12      12.3019      0.00000
     13      12.3019      0.00000
     14      19.2316      0.00000
     15      26.7224      0.00000
     16      33.1133      0.00000
     17      33.1133      0.00000
     18      33.1133      0.00000
     19      41.0230      0.00000
     20      41.0230      0.00000
     21      41.6906      0.00000
     22      41.6906      0.00000
     23      41.6906      0.00000
     24      50.2114      0.00000
     25      50.2114      0.00000
     26      50.2114      0.00000
     27      57.1845      0.00000
     28      62.4920      0.00000
     29      62.4920      0.00000
     30      62.4920      0.00000
     31      67.7794      0.00000
     32      67.7794      0.00000
     33      72.0211      0.00000
     34      72.0211      0.00000
     35      72.0211      0.00000
     36      82.3864      0.00000
     37      85.7680      0.00000
     38      85.8750      0.00000
     39      86.1477      0.00000
     40      87.7403      0.00000
     41      89.8377      0.00000
     42      90.1426      0.00000
     43      91.3956      0.00000
     44      91.9579      0.00000
     45      92.0750      0.00000
     46      92.6322      0.00000
     47      92.9327      0.00000
     48      94.1966      0.00000
     49      96.7591      0.00000
     50      97.1654      0.00000

[...]

 k-point   160 :       0.5000    0.5000    0.5000
  band No.  band energies     occupation
      1     -52.1393      2.00000
      2     -26.6055      2.00000
      3     -26.0804      2.00000
      4     -26.0804      2.00000
      5      -2.4026      2.00000
      6       3.5840      2.00000
      7       6.4720      2.00000
      8       6.4720      2.00000
      9      13.4617      0.00000
     10      13.4617      0.00000
     11      14.3949      0.00000
     12      18.0902      0.00000
     13      18.0902      0.00000
     14      19.1059      0.00000
     15      27.4114      0.00000
     16      27.8165      0.00000
     17      27.8165      0.00000
     18      37.8252      0.00000
     19      40.8606      0.00000
     20      40.8606      0.00000
     21      40.8947      0.00000
     22      41.1870      0.00000
     23      41.1870      0.00000
     24      53.0192      0.00000
     25      56.1085      0.00000
     26      56.1085      0.00000
     27      56.4530      0.00000
     28      59.3676      0.00000
     29      59.3676      0.00000
     30      64.2862      0.00000
     31      64.2862      0.00000
     32      66.3837      0.00000
     33      67.7266      0.00000
     34      69.6522      0.00000
     35      69.6522      0.00000
     36      73.4859      0.00000
     37      76.5394      0.00000
     38      79.5891      0.00000
     39      81.7733      0.00000
     40      81.7913      0.00000
     41      85.2197      0.00000
     42      85.3162      0.00000
     43      85.7201      0.00000
     44      88.8947      0.00000
     45      91.3078      0.00000
     46      91.4758      0.00000
     47      92.0909      0.00000
     48      92.3377      0.00000
     49      92.9005      0.00000
     50     100.9114      0.00000

 soft charge-density along one line, spin component           1
         0         1         2         3         4         5         6         7         8         9
 total charge-density along one line

------------------------ aborting loop because EDIFF is reached ----------------------------------------

  FORCE on cell =-STRESS in cart. coord.  units (eV):
  Direction    XX          YY          ZZ          XY          YZ          ZX
  Alpha Z   115.92184   115.92184   115.92184
  Ewald    -607.85544  -607.85544  -607.85544     0.00000     0.00000     0.00000
  Hartree   126.86002   126.86002   126.86002     0.00000     0.00000     0.00000
  E(xc)     -92.88863   -92.88863   -92.88863     0.00000     0.00000     0.00000
  Local     107.71326   107.71326   107.71326    -0.00000    -0.00000    -0.00000
  n-local   -17.49560   -19.33412   -19.33413    -0.87123    -2.01423    -0.87123
  augment    91.71211    91.71211    91.71211     0.00000     0.00000     0.00000
  Kinetic   265.72382   280.65715   280.65715    -1.69454    -3.24682    -1.69454
  Fock        0.00000     0.00000     0.00000     0.00000     0.00000     0.00000
  Total      -1.57874    -1.57874    -1.57874    -0.00000    -0.00000    -0.00000
  in kB    -149.94438  -149.94438  -149.94438    -0.00000    -0.00000    -0.00000

 VOLUME and BASIS-vectors are now :
  energy-cutoff  :      500.00
  volume of cell :       16.87
      direct lattice vectors                 reciprocal lattice vectors
     0.000000000  2.035576500  2.035576500    -0.245630660  0.245630660  0.245630660
     2.035576500  0.000000000  2.035576500     0.245630660 -0.245630660  0.245630660
     2.035576500  2.035576500  0.000000000     0.245630660  0.245630660 -0.245630660

  length of vectors
     2.878739894  2.878739894  2.878739894     0.425444784  0.425444784  0.425444784

 FORCES acting on ions
    electron-ion (+dipol)            ewald-force                    non-local-force                 convergence-correction
   -.268E-13 -.217E-13 -.200E-13   -.258E-14 -.667E-14 -.309E-15   0.662E-23 0.199E-22 -.397E-22   -.670E-13 -.422E-13 -.385E-13
   0.820E-12 -.117E-11 -.573E-12   0.173E-14 0.807E-15 0.144E-14   0.165E-23 0.165E-23 0.165E-23   0.311E-13 0.699E-13 0.332E-13
   0.793E-12 -.119E-11 -.593E-12   -.852E-15 -.586E-14 0.113E-14   0.827E-23 0.215E-22 -.381E-22   -.359E-13 0.277E-13 -.537E-14

 POSITION                                       TOTAL-FORCE (eV/Angst)
      0.00000      0.00000      0.00000        -0.000000     -0.000000      0.000000
      2.03558      2.03558      2.03558         0.000000      0.000000     -0.000000
    total drift:                                0.000000     -0.000000     -0.000000

  FREE ENERGIE OF THE ION-ELECTRON SYSTEM (eV)
  free  energy   TOTEN  =       -16.67069128 eV

  energy  without entropy=      -16.66929441  energy(sigma->0) =      -16.66999284